
Welcome to IBM(R) ILOG(R) CPLEX(R) Interactive Optimizer 12.7.1.0
  with Simplex, Mixed Integer & Barrier Optimizers
5725-A06 5725-A29 5724-Y48 5724-Y49 5724-Y54 5724-Y55 5655-Y21
Copyright IBM Corp. 1988, 2017.  All Rights Reserved.

Type 'help' for a list of available commands.
Type 'help' followed by a command name for more
information on commands.

CPLEX> New value for default parallel thread count: 1
CPLEX> New value for time limit in seconds: 3600
CPLEX> Problem 'eil76_m34.lp' read.
Read time = 0.25 sec. (21.27 ticks)
CPLEX> CPXPARAM_TimeLimit                               3600
CPXPARAM_Threads                                 1
CPXPARAM_Read_APIEncoding                        "UTF-8"
Tried aggregator 1 time.
MIP Presolve modified 198900 coefficients.
Reduced MIP has 8352 rows, 193876 columns, and 1159042 nonzeros.
Reduced MIP has 193800 binaries, 75 generals, 0 SOSs, and 0 indicators.
Presolve time = 0.69 sec. (880.15 ticks)
Tried aggregator 1 time.
Reduced MIP has 8352 rows, 193876 columns, and 1159042 nonzeros.
Reduced MIP has 193800 binaries, 76 generals, 0 SOSs, and 0 indicators.
Presolve time = 0.75 sec. (612.56 ticks)
Probing time = 0.22 sec. (92.19 ticks)
Clique table members: 378986.
MIP emphasis: balance optimality and feasibility.
MIP search method: dynamic search.
Parallel mode: none, using 1 thread.
Root relaxation solution time = 94.25 sec. (151699.93 ticks)

        Nodes                                         Cuts/
   Node  Left     Objective  IInf  Best Integer    Best Bound    ItCnt     Gap

      0     0       45.0679   301                     45.0679    74561         
      0     0       46.0000   351                    Cuts: 32    96768         
      0     0       46.0000   459                   Cuts: 192   131856         
      0     0       46.0000   374                    Cuts: 28   153670         
      0     0       46.0000   461                    Cuts: 92   193528         
Heuristic still looking.
Heuristic still looking.
      0     2       46.0000   280                     46.0000   193528         
Elapsed time = 677.87 sec. (1050330.15 ticks, tree = 0.01 MB, solutions = 0)
      1     3       46.0000   305                     46.0000   194608         
      2     4       46.0000   361                     46.0000   213224         
      3     5       46.0000   351                     46.0000   219588         
      4     6       46.0000   290                     46.0000   219934         
      5     7       46.0000   358                     46.0000   231326         
      6     8       46.0000   322                     46.0000   231793         
      7     9       46.0000   369                     46.0000   243444         
      8    10       46.0000   306                     46.0000   249400         
      9    11       46.0000   309                     46.0000   249572         
     10    12       46.0000   335                     46.0000   261260         
Elapsed time = 812.71 sec. (1286681.76 ticks, tree = 1.64 MB, solutions = 0)
     11    13       46.0000   372                     46.0000   282119         
     12    14       46.0000   316                     46.0000   289788         
     13    15       46.0000   317                     46.0000   296236         
     14    16       46.0000   339                     46.0000   297333         
     15    17       46.0000   329                     46.0000   301669         
     16    18       46.0000   314                     46.0000   310576         
     17    19       46.0000   336                     46.0000   320115         
     18    20       46.0000   347                     46.0000   323959         
     20    22       46.0589   322                     46.0000   326592         
     29    28       62.1429   212                     46.0000   326903         
Elapsed time = 938.47 sec. (1494747.63 ticks, tree = 4.52 MB, solutions = 0)
     30    29       73.0595   182                     46.0000   326916         
     38    35       74.4286   181                     46.0000   327258         
     51    45      109.2857   171                     46.0000   327577         
     74    62      144.2857   156                     46.0000   328004         
    100    80      207.5833   134                     46.0000   328369         
    122    96      311.5714   109                     46.0000   328661         
    145   116      327.0000   144                     46.0000   328997         
    173   138      385.3333   111                     46.0000   329370         
    196   160      470.2440    39                     46.0000   329899         
*   210   165      integral     0      466.0000       46.0000   330186   90.13%
    211   165       46.0000   291      466.0000       46.0000   337776   90.13%
Elapsed time = 983.95 sec. (1566840.41 ticks, tree = 28.34 MB, solutions = 1)
    212   166       46.0376   293      466.0000       46.0000   345005   90.13%
    213   167       46.0000   305      466.0000       46.0000   349144   90.13%
    214   168       46.0000   300      466.0000       46.0000   352833   90.13%
    215   169       46.0009   352      466.0000       46.0000   354240   90.13%
    216   170       46.5417   315      466.0000       46.0000   367501   90.13%
    218   172       46.2669   337      466.0000       46.0000   368054   90.13%
    219   173       46.0151   301      466.0000       46.0000   368441   90.13%
    220   174       46.5714   347      466.0000       46.0000   368810   90.13%
    221   175       46.0981   334      466.0000       46.0000   369110   90.13%
    223   177       46.1994   401      466.0000       46.0000   369462   90.13%
Elapsed time = 1042.93 sec. (1667013.68 ticks, tree = 30.20 MB, solutions = 1)
    224   178       47.0655   326      466.0000       46.0000   369862   90.13%
    225   179       46.4293   608      466.0000       46.0000   370234   90.13%
    227   181       52.0000   392      466.0000       46.0000   370660   90.13%
    231   184       52.0000   346      466.0000       46.0000   370974   90.13%
    233   186       52.0000   431      466.0000       46.0000   371429   90.13%
    240   191       52.0000   334      466.0000       46.0000   371736   90.13%
    242   193       52.0000   350      466.0000       46.0000   372082   90.13%
    243   194       52.0000   399      466.0000       46.0000   372379   90.13%
    245   196       52.0000   405      466.0000       46.0000   372698   90.13%
    246   197       52.0000   348      466.0000       46.0000   373135   90.13%
Elapsed time = 1051.31 sec. (1679368.48 ticks, tree = 33.79 MB, solutions = 1)
    248   199       52.0000   350      466.0000       46.0000   389169   90.13%
    249   200       52.0000   341      466.0000       46.0000   401166   90.13%
    250   201       52.0000   335      466.0000       46.0000   414639   90.13%
    251   202       52.0000   423      466.0000       46.0000   415921   90.13%
    252   203       52.0000   333      466.0000       46.0000   435974   90.13%
    253   204       52.0000   348      466.0000       46.0000   454447   90.13%
    254   205       53.3810   335      466.0000       46.0000   474099   90.13%
    257   206       52.0000   371      466.0000       46.0000   476023   90.13%
    258   207       52.0000   325      466.0000       46.0000   476492   90.13%
    259   208       52.0000   291      466.0000       46.0000   492460   90.13%
Elapsed time = 1204.59 sec. (1920092.65 ticks, tree = 35.69 MB, solutions = 1)
    260   209       52.0000   326      466.0000       46.0000   507894   90.13%
    261   210       56.1429   318      466.0000       46.0000   522063   90.13%
    262   211       52.0000   328      466.0000       46.0000   541438   90.13%
    263   212       52.0000   363      466.0000       46.0000   542378   90.13%
    264   213       52.0000   349      466.0000       46.0000   560372   90.13%
    265   214       78.0476   342      466.0000       46.0000   576505   90.13%
    266   215       52.0000   353      466.0000       46.0000   596168   90.13%
    268   215       52.0000   314      466.0000       46.0000   614922   90.13%
    269   216       52.0000   336      466.0000       46.0000   633962   90.13%
    271   218       52.0000   264      466.0000       46.0000   650987   90.13%
Elapsed time = 1425.19 sec. (2263361.68 ticks, tree = 37.43 MB, solutions = 1)
    272   219       52.0000   268      466.0000       46.0000   652910   90.13%
    273   220       53.7738   341      466.0000       46.0000   668593   90.13%
    274   221       52.0000   315      466.0000       46.0000   685198   90.13%
    275   221       94.0952   293      466.0000       46.0000   713609   90.13%
    276   222       52.0000   259      466.0000       46.0000   728072   90.13%
    277   223       52.0000   310      466.0000       46.0000   729059   90.13%
    278   224       52.0000   302      466.0000       46.0000   744221   90.13%
    279   225       52.0000   352      466.0000       46.0000   761826   90.13%
    280   226       52.0000   309      466.0000       46.0000   763491   90.13%
    281   227       52.0000   313      466.0000       46.0000   765226   90.13%
Elapsed time = 1555.92 sec. (2467028.75 ticks, tree = 38.82 MB, solutions = 1)
    282   228       52.0000   278      466.0000       46.0000   779545   90.13%
    283   229       52.0000   286      466.0000       46.0000   792265   90.13%
    284   230       52.0000   280      466.0000       46.0000   802927   90.13%
    285   231       52.0000   264      466.0000       46.0000   813703   90.13%
    286   232       52.0000   349      466.0000       46.0000   814175   90.13%
    287   233       53.9524   256      466.0000       46.0000   828618   90.13%
    288   233       53.9524   318      466.0000       46.0000   830749   90.13%
    289   233       54.5714   276      466.0000       46.0000   838956   90.13%
    290   234       68.1786   242      466.0000       46.0000   853602   90.13%
    292   236       68.1786   229      466.0000       46.0000   854568   90.13%
Elapsed time = 1647.37 sec. (2609650.69 ticks, tree = 40.58 MB, solutions = 1)
    293   237       68.1786   259      466.0000       46.0000   855155   90.13%
    300   242       82.7143   184      466.0000       46.0000   855697   90.13%
    308   250       75.0714   153      466.0000       46.0000   866526   90.13%
    319   258       98.2381   116      466.0000       46.0000   867029   90.13%
    334   271      119.9524    95      466.0000       46.0000   867406   90.13%
    351   284      128.5714    93      466.0000       46.0000   867724   90.13%
    363   293      164.2857    36      466.0000       46.0000   868213   90.13%
    380   306      196.5714    21      466.0000       46.0000   868814   90.13%
*   394   240      integral     0      267.0000       46.0000   868990   82.77%
*   400   241      integral     0      265.0000       46.0000   869026   82.64%
*   401   239      integral     0      262.0000       46.0000   869037   82.44%
    401   239      262.0000     0      262.0000       46.0000   869037   82.44%
    403   239       46.0147   320      262.0000       46.0000   874473   82.44%
Elapsed time = 1672.79 sec. (2648448.85 ticks, tree = 41.49 MB, solutions = 4)
    404   240       46.0000   297      262.0000       46.0000   886776   82.44%
    406   242       46.0000   300      262.0000       46.0000   887991   82.44%
    409   245       46.0000   277      262.0000       46.0000   889369   82.44%
    412   248       46.0028   301      262.0000       46.0000   891464   82.44%
    418   254       46.2110   355      262.0000       46.0000   892665   82.44%
    427   263       46.8634   362      262.0000       46.0000   893791   82.44%
    437   273       47.5408   366      262.0000       46.0000   894840   82.44%
    441   277       47.6300   532      262.0000       46.0000   895857   82.44%
    448   284       48.0361   478      262.0000       46.0000   897186   82.44%
    454   290       48.8235   462      262.0000       46.0000   898283   82.44%
Elapsed time = 1726.24 sec. (2736343.03 ticks, tree = 49.99 MB, solutions = 4)
    466   302       49.1287   455      262.0000       46.0000   899236   82.44%
    471   307       49.2670   445      262.0000       46.0000   900651   82.44%
    476   312       49.3876   475      262.0000       46.0000   901855   82.44%
    483   319       49.5086   438      262.0000       46.0000   902760   82.44%
    490   326       49.8160   468      262.0000       46.0000   903789   82.44%
    493   329       49.9074   504      262.0000       46.0000   905117   82.44%
    497   333       50.0175   446      262.0000       46.0000   906634   82.44%
    506   342       50.1562   498      262.0000       46.0000   907621   82.44%
    512   348       46.0630   305      262.0000       46.0000   916518   82.44%
*   513+  326                          210.0000       46.0000            78.10%
    513   328       47.7679   332      210.0000       46.0000   933486   78.10%
Elapsed time = 1974.46 sec. (3107973.55 ticks, tree = 56.43 MB, solutions = 5)
    514   329       46.0000   292      210.0000       46.0000   936061   78.10%
    515   330       46.0000   308      210.0000       46.0000   941229   78.10%
    516   331       46.1034   304      210.0000       46.0000   944905   78.10%
    525   340       46.9348   335      210.0000       46.0000   945863   78.10%
    536   351       47.5161   314      210.0000       46.0000   947275   78.10%
    541   356       48.0357   361      210.0000       46.0000   960647   78.10%
    542   357       48.0357   374      210.0000       46.0000   978202   78.10%
    545   360       48.0379   334      210.0000       46.0000  1000445   78.10%
    551   366       48.1395   441      210.0000       46.0000  1001543   78.10%
    560   375       48.4094   400      210.0000       46.0000  1002779   78.10%
Elapsed time = 2089.26 sec. (3290900.21 ticks, tree = 64.27 MB, solutions = 5)
    564   379       48.5706   417      210.0000       46.0000  1003995   78.10%
    568   383       48.7100   391      210.0000       46.0000  1006001   78.10%
    573   388       48.8708   396      210.0000       46.0000  1007379   78.10%
    577   392       49.3076   389      210.0000       46.0000  1008583   78.10%
    585   400       49.5225   386      210.0000       46.0000  1009711   78.10%
    593   408       50.0605   401      210.0000       46.0000  1010854   78.10%
    599   414       50.1826   407      210.0000       46.0000  1012320   78.10%
    604   419       50.3938   394      210.0000       46.0000  1013570   78.10%
    611   426       50.9192   431      210.0000       46.0000  1014610   78.10%
    615   430       51.1519   406      210.0000       46.0000  1015821   78.10%
Elapsed time = 2116.97 sec. (3336390.66 ticks, tree = 73.65 MB, solutions = 5)
    623   438       46.0000   269      210.0000       46.0000  1183380   78.10%
    624   438       46.0000   427      210.0000       46.0000  1213100   78.10%
    625   439       46.0000   310      210.0000       46.0000  1225392   78.10%
    626   439       46.0000   323      210.0000       46.0000  1225437   78.10%
    627   440       46.0000   320      210.0000       46.0000  1229194   78.10%
    628   441       46.0000   325      210.0000       46.0000  1231893   78.10%
    629   441       46.0000   331      210.0000       46.0000  1237700   78.10%
    630   441       46.0000   343      210.0000       46.0000  1246920   78.10%
    631   442       46.0000   351      210.0000       46.0000  1252234   78.10%
    632   443       46.0387   363      210.0000       46.0000  1266765   78.10%
Elapsed time = 3395.10 sec. (5254477.18 ticks, tree = 75.66 MB, solutions = 5)
    633   444       46.0000   358      210.0000       46.0000  1266850   78.10%
    634   445       46.1618   331      210.0000       46.0000  1280391   78.10%
    635   445       46.0000   374      210.0000       46.0000  1280560   78.10%
    636   445       46.0782   336      210.0000       46.0000  1289085   78.10%
    637   445       46.0060   326      210.0000       46.0000  1291833   78.10%
    638   446       46.0586   365      210.0000       46.0000  1292007   78.10%
    639   446       46.0228   337      210.0000       46.0000  1292232   78.10%
    641   448       54.2381   263      210.0000       46.0000  1292585   78.10%
    643   449       46.0270   348      210.0000       46.0000  1292737   78.10%
    646   449       47.0000   307      210.0000       46.0000  1292787   78.10%
Elapsed time = 3472.19 sec. (5377183.84 ticks, tree = 76.47 MB, solutions = 5)
    650   452       47.0000   334      210.0000       46.0000  1292953   78.10%
    651   452       60.0000   415      210.0000       46.0000  1318198   78.10%

Clique cuts applied:  8
Cover cuts applied:  5
Mixed integer rounding cuts applied:  19
Zero-half cuts applied:  18
Gomory fractional cuts applied:  1

Root node processing (before b&c):
  Real time             =  640.86 sec. (1022772.28 ticks)
Sequential b&c:
  Real time             = 2959.17 sec. (4543640.00 ticks)
                          ------------
Total (root+branch&cut) = 3600.03 sec. (5566412.27 ticks)

Solution pool: 5 solutions saved.

MIP - Time limit exceeded, integer feasible:  Objective =  2.1000000000e+02
Current MIP best bound =  4.6000000000e+01 (gap = 164, 78.10%)
Solution time = 3600.03 sec.  Iterations = 1318286  Nodes = 653 (453)
Deterministic time = 5566412.83 ticks  (1546.21 ticks/sec)

CPLEX> Incumbent solution
Variable Name           Solution Value
y                           210.000000
x14                           1.000000
x5778                         1.000000
x11561                        1.000000
x17371                        1.000000
x23169                        1.000000
x28930                        1.000000
x34698                        1.000000
x40485                        1.000000
x46249                        1.000000
x52021                        1.000000
x57822                        1.000000
x63609                        1.000000
x69367                        1.000000
x75151                        1.000000
x80883                        1.000000
x86684                        1.000000
x92438                        1.000000
x98240                        1.000000
x103984                       1.000000
x109768                       1.000000
x115551                       1.000000
x121365                       1.000000
x127101                       1.000000
x132912                       1.000000
x138645                       1.000000
x144470                       1.000000
x150179                       1.000000
x156008                       1.000000
x161739                       1.000000
x167537                       1.000000
x173348                       1.000000
x179102                       1.000000
x184855                       1.000000
x190682                       1.000000
x4561                         1.000000
x10185                        1.000000
x15201                        1.000000
x20521                        1.000000
x27969                        1.000000
x29565                        1.000000
x37773                        1.000000
x44385                        1.000000
x49249                        1.000000
x52289                        1.000000
x62397                        1.000000
x64449                        1.000000
x71137                        1.000000
x79801                        1.000000
x84741                        1.000000
x89909                        1.000000
x94013                        1.000000
x101765                       1.000000
x105109                       1.000000
x111493                       1.000000
x117801                       1.000000
x124793                       1.000000
x130417                       1.000000
x137637                       1.000000
x140145                       1.000000
x149721                       1.000000
x150329                       1.000000
x160133                       1.000000
x164541                       1.000000
x169937                       1.000000
x178373                       1.000000
x180957                       1.000000
x186505                       1.000000
x196157                       1.000000
x69240                        1.000000
x56245                        1.000000
x67342                        1.000000
x181039                       1.000000
x126472                       1.000000
x32614                        1.000000
x68944                        1.000000
x63777                        1.000000
x54735                        1.000000
x64389                        1.000000
x73434                        1.000000
x149664                       1.000000
x70629                        1.000000
x179538                       1.000000
x181135                       1.000000
x183568                       1.000000
x14470                        1.000000
x13788                        1.000000
x66154                        1.000000
x69043                        1.000000
x145880                       1.000000
x166706                       1.000000
x12199                        1.000000
x68592                        1.000000
x129245                       1.000000
x121875                       1.000000
x13957                        1.000000
x64803                        1.000000
x82284                        1.000000
x182530                       1.000000
x53105                        1.000000
x66558                        1.000000
x5911                         1.000000
x183144                       1.000000
x1049                         1.000000
x162554                       1.000000
x69227                        1.000000
x147131                       1.000000
x67940                        1.000000
x66119                        1.000000
x63992                        1.000000
u4                           39.000000
u5                            3.000000
u6                           37.000000
u7                           40.000000
u8                            1.000000
u10                           8.000000
u11                           1.000000
u12                          34.000000
u13                          41.000000
u15                           1.000000
u17                          35.000000
u18                           1.000000
u20                           1.000000
u25                           2.000000
u26                          41.000000
u27                           4.000000
u28                           3.000000
u30                           2.000000
u31                           7.000000
u32                          40.000000
u34                           2.000000
u35                           1.000000
u36                          40.000000
u38                          41.000000
u39                           1.000000
u40                           6.000000
u41                          41.000000
u45                          41.000000
u47                           2.000000
u48                          41.000000
u49                          41.000000
u51                          36.000000
u52                          41.000000
u54                           1.000000
u57                           2.000000
u58                           9.000000
u59                          41.000000
u60                           2.000000
u61                           1.000000
u63                          41.000000
u65                          40.000000
u66                          39.000000
u67                           5.000000
u68                          41.000000
u71                          41.000000
u72                          33.000000
u75                           3.000000
u76                          38.000000
All other variables in the range 1-193876 are 0.
CPLEX> 